db/data/239788571309621311292142623911724861.z3.out
sat
-------------------
1314.955284675
